Rodando pra 1h

Optimize a model with 112 rows, 102 columns and 1230 nonzeros
Coefficient statistics:
  Matrix range    [1e+00, 1e+04]
  Objective range [2e-01, 2e-01]
  Bounds range    [1e+00, 1e+04]
  RHS range       [1e+00, 1e+04]
Presolve removed 20 rows and 4 columns
Presolve time: 0.00s
Presolved: 92 rows, 98 columns, 926 nonzeros
Variable types: 20 continuous, 78 integer (74 binary)
Found heuristic solution: objective 244.0000000

Root relaxation: objective 0.000000e+00, 37 iterations, 0.00 seconds

    Nodes    |    Current Node    |     Objective Bounds      |     Work
 Expl Unexpl |  Obj  Depth IntInf | Incumbent    BestBd   Gap | It/Node Time

     0     0    0.00000    0   23  244.00000    0.00000   100%     -    0s
H    0     0                     220.5000000    0.00000   100%     -    0s
H    0     0                     219.0000000    0.00000   100%     -    0s
     0     0    2.76082    0   32  219.00000    2.76082  98.7%     -    0s
H    0     0                     204.0000000    2.76082  98.6%     -    0s
     0     0    3.32084    0   34  204.00000    3.32084  98.4%     -    0s
     0     0    5.42888    0   36  204.00000    5.42888  97.3%     -    0s
H    0     0                     188.0000000    5.42888  97.1%     -    0s
     0     0    8.25667    0   35  188.00000    8.25667  95.6%     -    0s
     0     0    9.15671    0   40  188.00000    9.15671  95.1%     -    0s
     0     0   10.16568    0   40  188.00000   10.16568  94.6%     -    0s
     0     0   10.41013    0   40  188.00000   10.41013  94.5%     -    0s
     0     0   10.50569    0   39  188.00000   10.50569  94.4%     -    0s
     0     0   10.80071    0   39  188.00000   10.80071  94.3%     -    0s
     0     0   10.99993    0   41  188.00000   10.99993  94.1%     -    0s
     0     0   13.88977    0   47  188.00000   13.88977  92.6%     -    0s
H    0     0                     187.5000000   13.88977  92.6%     -    0s
     0     0   17.46957    0   49  187.50000   17.46957  90.7%     -    0s
     0     0   19.45118    0   51  187.50000   19.45118  89.6%     -    0s
     0     0   19.57586    0   52  187.50000   19.57586  89.6%     -    0s
     0     0   22.99867    0   50  187.50000   22.99867  87.7%     -    0s
     0     0   24.76747    0   52  187.50000   24.76747  86.8%     -    0s
     0     0   25.97561    0   52  187.50000   25.97561  86.1%     -    0s
H    0     0                     186.0000000   25.97561  86.0%     -    0s
     0     0   26.09880    0   51  186.00000   26.09880  86.0%     -    0s
     0     0   26.25931    0   51  186.00000   26.25931  85.9%     -    0s
     0     0   26.27094    0   51  186.00000   26.27094  85.9%     -    0s
     0     0   26.27937    0   54  186.00000   26.27937  85.9%     -    0s
     0     0   26.27937    0   53  186.00000   26.27937  85.9%     -    0s
     0     2   26.30090    0   52  186.00000   26.30090  85.9%     -    0s
H  163   101                     174.7500000   33.08545  81.1%   8.4    0s
H  712   301                     171.5000000   49.95439  70.9%  10.2    0s
H  794   279                     167.2500000   59.53956  64.4%  10.1    0s

Cutting planes:
  Gomory: 7
  MIR: 68
  Flow cover: 63
  Zero half: 1
  Network: 5

Explored 3047 nodes (25409 simplex iterations) in 1.55 seconds
Thread count was 1 (of 4 available processors)

Optimal solution found (tolerance 1.00e-04)
Best objective 1.672500000000e+02, best bound 1.672500000000e+02, gap 0.0%
Tempo: 1.54 segundos

0 1 64 61 47 62 25 72 15 46 
0 3 10 17 78 53 53 80 69 2 
1 2 50 20 46 15 17 63 14 75 
3 4 47 15 87 56 63 9 31 31 
(171 113 258 186 158 224 129 154 )

